; benchmark generated from python API
(set-info :status unknown)
(declare-fun x_day () Int)
(declare-fun x_month () Int)
(declare-fun x_year () Int)
(declare-fun x_epoch () Int)
(declare-fun x_shift_period_19973_day () Int)
(declare-fun x_shift_period_19973_month () Int)
(declare-fun x_shift_period_19973_year () Int)
(declare-fun x_shift_period_19973_epoch () Int)
(declare-fun x_shift_period_22401_day () Int)
(declare-fun x_shift_period_22401_month () Int)
(declare-fun x_shift_period_22401_year () Int)
(declare-fun x_shift_period_22401_epoch () Int)
(assert
 (let (($x672 (= (mod x_year 4) 0)))
 (let (($x356 (= (mod x_year 100) 0)))
 (let (($x938 (= (mod x_year 400) 0)))
 (let (($x1010 (ite $x938 true (ite $x356 false $x672))))
 (let (($x652 (= x_month 9)))
 (let ((?x567 (ite $x652 243 (ite (= x_month 10) 273 (ite (= x_month 11) 304 334)))))
 (let (($x395 (= x_month 6)))
 (let ((?x112 (ite $x395 151 (ite (= x_month 7) 181 (ite (= x_month 8) 212 ?x567)))))
 (let (($x788 (= x_month 4)))
 (let ((?x235 (ite (= x_month 3) 59 (ite $x788 90 (ite (= x_month 5) 120 ?x112)))))
 (let (($x620 (= x_month 2)))
 (let (($x503 (= x_month 1)))
 (let ((?x943 (ite $x503 0 (ite $x620 31 ?x235))))
 (let ((?x1268 (- (+ (* 365 (- x_year 1)) (div (- x_year 1) 4)) (div (- x_year 1) 100))))
 (let ((?x328 (+ (+ ?x1268 (div (- x_year 1) 400)) (+ ?x943 (ite (and $x1010 (> x_month 2)) 1 0)))))
 (let (($x182 (<= x_year 2400)))
 (let (($x1406 (>= x_year 1600)))
 (let ((?x564 (ite (or $x788 $x395 $x652 (= x_month 11)) 30 31)))
 (let ((?x889 (ite $x620 (ite $x1010 29 28) ?x564)))
 (let (($x1426 (>= x_day 1)))
 (let (($x150 (<= x_month 12)))
 (let (($x1627 (>= x_month 1)))
 (and $x1627 $x150 $x1426 (<= x_day ?x889) $x1406 $x182 (= x_epoch (+ ?x328 (- x_day 1)))))))))))))))))))))))))))
(assert
 (let (($x1426 (>= x_day 1)))
 (let (($x503 (= x_month 1)))
 (let (($x606 (= x_year 2020)))
 (let (($x3436 (and $x606 $x503 $x1426)))
 (or (> x_year 2020) (and $x606 (> x_month 1)) $x3436))))))
(assert
 (let (($x620 (= x_month 2)))
 (let (($x606 (= x_year 2020)))
 (let (($x1763 (and $x606 $x620 (<= x_day 28))))
 (or (< x_year 2020) (and $x606 (< x_month 2)) $x1763)))))
(assert
 (let (($x2345 (= (mod x_shift_period_19973_year 4) 0)))
 (let (($x1036 (= (mod x_shift_period_19973_year 100) 0)))
 (let (($x3324 (= (mod x_shift_period_19973_year 400) 0)))
 (let (($x3226 (ite $x3324 true (ite $x1036 false $x2345))))
 (let ((?x756 (ite (= x_shift_period_19973_month 10) 273 (ite (= x_shift_period_19973_month 11) 304 334))))
 (let (($x6543 (= x_shift_period_19973_month 9)))
 (let ((?x2806 (ite (= x_shift_period_19973_month 7) 181 (ite (= x_shift_period_19973_month 8) 212 (ite $x6543 243 ?x756)))))
 (let (($x1134 (= x_shift_period_19973_month 6)))
 (let (($x1993 (= x_shift_period_19973_month 4)))
 (let ((?x3574 (ite $x1993 90 (ite (= x_shift_period_19973_month 5) 120 (ite $x1134 151 ?x2806)))))
 (let (($x1965 (= x_shift_period_19973_month 2)))
 (let ((?x3517 (ite (= x_shift_period_19973_month 1) 0 (ite $x1965 31 (ite (= x_shift_period_19973_month 3) 59 ?x3574)))))
 (let ((?x2130 (+ ?x3517 (ite (and $x3226 (> x_shift_period_19973_month 2)) 1 0))))
 (let ((?x2362 (+ (* 365 (- x_shift_period_19973_year 1)) (div (- x_shift_period_19973_year 1) 4))))
 (let ((?x138 (+ (- ?x2362 (div (- x_shift_period_19973_year 1) 100)) (div (- x_shift_period_19973_year 1) 400))))
 (let (($x1952 (= x_shift_period_19973_epoch (+ (+ ?x138 ?x2130) (- x_shift_period_19973_day 1)))))
 (let (($x3468 (<= x_shift_period_19973_year 2400)))
 (let (($x2370 (>= x_shift_period_19973_year 1600)))
 (let ((?x6377 (ite (or $x1993 $x1134 $x6543 (= x_shift_period_19973_month 11)) 30 31)))
 (let (($x3669 (>= x_shift_period_19973_day 1)))
 (let (($x1199 (<= x_shift_period_19973_month 12)))
 (let (($x1002 (>= x_shift_period_19973_month 1)))
 (and $x1002 $x1199 $x3669 (<= x_shift_period_19973_day (ite $x1965 (ite $x3226 29 28) ?x6377)) $x2370 $x3468 $x1952))))))))))))))))))))))))
(assert
 (let ((?x1306 (* 12 x_year)))
 (let ((?x2663 (+ ?x1306 (- x_month 1))))
 (let ((?x2186 (+ ?x2663 12)))
 (let ((?x3508 (div ?x2186 12)))
 (= x_shift_period_19973_year ?x3508))))))
(assert
 (let ((?x2902 (+ (mod (+ (+ (* 12 x_year) (- x_month 1)) 12) 12) 1)))
 (= x_shift_period_19973_month ?x2902)))
(assert
 (let ((?x2902 (+ (mod (+ (+ (* 12 x_year) (- x_month 1)) 12) 12) 1)))
 (let ((?x881 (ite (or (= ?x2902 4) (= ?x2902 6) (= ?x2902 9) (= ?x2902 11)) 30 31)))
 (let ((?x1306 (* 12 x_year)))
 (let ((?x2663 (+ ?x1306 (- x_month 1))))
 (let ((?x2186 (+ ?x2663 12)))
 (let ((?x3508 (div ?x2186 12)))
 (let (($x526 (ite (= (mod ?x3508 400) 0) true (ite (= (mod ?x3508 100) 0) false (= (mod ?x3508 4) 0)))))
 (let ((?x1898 (ite (= ?x2902 2) (ite $x526 29 28) ?x881)))
 (let ((?x2886 (ite (<= x_day ?x1898) x_day ?x1898)))
 (let (($x737 (= x_month 11)))
 (let (($x652 (= x_month 9)))
 (let (($x395 (= x_month 6)))
 (let (($x788 (= x_month 4)))
 (let ((?x564 (ite (or $x788 $x395 $x652 $x737) 30 31)))
 (let (($x672 (= (mod x_year 4) 0)))
 (let (($x356 (= (mod x_year 100) 0)))
 (let (($x938 (= (mod x_year 400) 0)))
 (let (($x1010 (ite $x938 true (ite $x356 false $x672))))
 (let (($x620 (= x_month 2)))
 (let ((?x889 (ite $x620 (ite $x1010 29 28) ?x564)))
 (let (($x242 (= x_day ?x889)))
 (let ((?x211 (ite false (ite $x242 ?x1898 ?x2886) ?x2886)))
 (= x_shift_period_19973_day ?x211))))))))))))))))))))))))
(assert
 (let (($x1322 (= (mod x_shift_period_22401_year 4) 0)))
 (let (($x2880 (= (mod x_shift_period_22401_year 100) 0)))
 (let (($x213 (= (mod x_shift_period_22401_year 400) 0)))
 (let (($x2476 (ite $x213 true (ite $x2880 false $x1322))))
 (let ((?x1595 (ite (= x_shift_period_22401_month 10) 273 (ite (= x_shift_period_22401_month 11) 304 334))))
 (let (($x129 (= x_shift_period_22401_month 9)))
 (let ((?x1835 (ite (= x_shift_period_22401_month 7) 181 (ite (= x_shift_period_22401_month 8) 212 (ite $x129 243 ?x1595)))))
 (let (($x3679 (= x_shift_period_22401_month 6)))
 (let (($x1208 (= x_shift_period_22401_month 4)))
 (let ((?x939 (ite $x1208 90 (ite (= x_shift_period_22401_month 5) 120 (ite $x3679 151 ?x1835)))))
 (let (($x192 (= x_shift_period_22401_month 2)))
 (let ((?x1912 (ite (= x_shift_period_22401_month 1) 0 (ite $x192 31 (ite (= x_shift_period_22401_month 3) 59 ?x939)))))
 (let ((?x157 (+ ?x1912 (ite (and $x2476 (> x_shift_period_22401_month 2)) 1 0))))
 (let ((?x1505 (+ (* 365 (- x_shift_period_22401_year 1)) (div (- x_shift_period_22401_year 1) 4))))
 (let ((?x920 (+ (- ?x1505 (div (- x_shift_period_22401_year 1) 100)) (div (- x_shift_period_22401_year 1) 400))))
 (let (($x2740 (= x_shift_period_22401_epoch (+ (+ ?x920 ?x157) (- x_shift_period_22401_day 1)))))
 (let (($x1634 (<= x_shift_period_22401_year 2400)))
 (let (($x1642 (>= x_shift_period_22401_year 1600)))
 (let ((?x375 (ite (or $x1208 $x3679 $x129 (= x_shift_period_22401_month 11)) 30 31)))
 (let (($x755 (>= x_shift_period_22401_day 1)))
 (let (($x588 (<= x_shift_period_22401_month 12)))
 (let (($x1164 (>= x_shift_period_22401_month 1)))
 (and $x1164 $x588 $x755 (<= x_shift_period_22401_day (ite $x192 (ite $x2476 29 28) ?x375)) $x1642 $x1634 $x2740))))))))))))))))))))))))
(assert
 (let ((?x1625 (+ (mod (+ (+ (* 12 x_year) (- x_month 1)) 0) 12) 1)))
 (let (($x2751 (= ?x1625 11)))
 (let (($x2727 (= ?x1625 9)))
 (let (($x2718 (= ?x1625 6)))
 (let (($x2716 (= ?x1625 4)))
 (let ((?x1306 (* 12 x_year)))
 (let ((?x2663 (+ ?x1306 (- x_month 1))))
 (let ((?x2752 (+ ?x2663 0)))
 (let ((?x918 (div ?x2752 12)))
 (let (($x2214 (ite (= (mod ?x918 400) 0) true (ite (= (mod ?x918 100) 0) false (= (mod ?x918 4) 0)))))
 (let (($x2530 (= ?x1625 2)))
 (let ((?x2916 (ite $x2530 (ite $x2214 29 28) (ite (or $x2716 $x2718 $x2727 $x2751) 30 31))))
 (let ((?x1273 (ite (<= x_day ?x2916) x_day ?x2916)))
 (let (($x737 (= x_month 11)))
 (let (($x652 (= x_month 9)))
 (let (($x395 (= x_month 6)))
 (let (($x788 (= x_month 4)))
 (let ((?x564 (ite (or $x788 $x395 $x652 $x737) 30 31)))
 (let (($x672 (= (mod x_year 4) 0)))
 (let (($x356 (= (mod x_year 100) 0)))
 (let (($x938 (= (mod x_year 400) 0)))
 (let (($x1010 (ite $x938 true (ite $x356 false $x672))))
 (let (($x620 (= x_month 2)))
 (let ((?x889 (ite $x620 (ite $x1010 29 28) ?x564)))
 (let (($x242 (= x_day ?x889)))
 (let ((?x3596 (ite (= ?x1625 8) 212 (ite $x2727 243 (ite (= ?x1625 10) 273 (ite $x2751 304 334))))))
 (let ((?x1219 (ite (= ?x1625 5) 120 (ite $x2718 151 (ite (= ?x1625 7) 181 ?x3596)))))
 (let ((?x2017 (ite (= ?x1625 1) 0 (ite $x2530 31 (ite (= ?x1625 3) 59 (ite $x2716 90 ?x1219))))))
 (let ((?x3401 (- (+ (* 365 (- ?x918 1)) (div (- ?x918 1) 4)) (div (- ?x918 1) 100))))
 (let ((?x1906 (+ (+ ?x3401 (div (- ?x918 1) 400)) (+ ?x2017 (ite (and $x2214 (> ?x1625 2)) 1 0)))))
 (= x_shift_period_22401_epoch (+ (+ ?x1906 (- (ite false (ite $x242 ?x2916 ?x1273) ?x1273) 1)) 365)))))))))))))))))))))))))))))))))
(assert
 (not (= x_shift_period_19973_epoch x_shift_period_22401_epoch)))
(check-sat)
